c SAT Generator for power-law distributed variable frequencies
c -g u -v 20 -c 91 -k 3 -p 2.750000 -b 3.200000 -f /home/schmidt/Devel/ni-kop-sat/data/ensemble/ruf20-91/ruf20-91-772 -u 1 -U 1 -s 2778091461
p cnf 20 91
-4 11 19 0
17 19 20 0
1 13 -18 0
-11 -15 16 0
5 7 18 0
-8 10 -13 0
13 16 20 0
-9 -16 17 0
-2 -8 -19 0
-8 16 17 0
2 -11 16 0
2 15 -20 0
-4 -12 20 0
-3 -9 -16 0
1 7 -11 0
12 -15 20 0
-5 14 18 0
2 3 -6 0
-6 -8 -15 0
-6 -14 -16 0
3 -5 20 0
-2 5 -7 0
-17 -18 20 0
-6 -9 11 0
10 -11 -17 0
-1 8 19 0
-10 12 13 0
8 13 -17 0
8 -9 -10 0
-1 8 12 0
12 18 -19 0
4 7 -14 0
-1 17 19 0
12 -13 -15 0
-2 5 -17 0
-3 -6 8 0
3 -9 -14 0
-7 8 9 0
-4 16 -18 0
4 5 11 0
12 -13 14 0
-5 8 -10 0
-10 -13 15 0
-2 3 -12 0
1 -14 -19 0
2 8 -15 0
1 5 14 0
-6 -9 18 0
2 4 17 0
14 -17 -19 0
-5 -8 12 0
-1 9 18 0
-2 10 15 0
-4 -15 -16 0
-2 3 15 0
3 -6 -12 0
13 16 17 0
-6 -13 -18 0
-1 -7 -12 0
12 15 18 0
-1 -7 13 0
-3 6 18 0
-8 17 19 0
2 -13 20 0
-1 12 -16 0
1 -8 -15 0
4 6 -9 0
-4 8 14 0
5 8 -17 0
-5 -6 20 0
7 8 18 0
2 14 -16 0
-5 13 19 0
-1 -3 8 0
-13 -16 20 0
-16 17 20 0
1 -9 -12 0
-15 16 -18 0
5 10 -20 0
-5 -12 17 0
-12 -15 -19 0
1 9 14 0
-10 13 -16 0
4 8 -18 0
2 -7 -18 0
-6 11 -17 0
8 14 -20 0
-4 -8 19 0
-1 5 -20 0
2 3 -4 0
3 -11 -17 0
